p cnf 104 246
a 1 2 3 4 5 6 7 8 9 10 11 12 13 14 15 16 17 18 19 20 0
e 21 22 23 24 25 26 27 28 29 30 31 32 33 34 35 36 37 38 39 40 41 42 43 44 45 46 47 48 49 50 51 52 53 54 55 56 57 58 59 60 61 62 63 64 65 66 67 68 69 70 71 72 73 74 75 76 77 78 79 80 81 82 83 84 85 86 87 88 89 90 91 92 93 94 95 96 97 98 99 100 101 102 103 0
-1 -38 0
10 -38 0
1 38 -10 0
-9 -39 0
38 -39 0
9 39 -38 0
40 -9 0
40 -39 0
9 39 -40 0
-8 -40 -41 0
8 40 -41 0
40 41 -8 0
8 41 -40 0
-2 -42 0
8 -42 0
2 42 -8 0
-12 -43 0
42 -43 0
12 43 -42 0
44 -12 0
44 -43 0
12 43 -44 0
-11 -44 -45 0
11 44 -45 0
44 45 -11 0
11 45 -44 0
-3 -46 0
11 -46 0
3 46 -11 0
-14 -47 0
46 -47 0
14 47 -46 0
48 -14 0
48 -47 0
14 47 -48 0
-13 -48 -49 0
13 48 -49 0
48 49 -13 0
13 49 -48 0
-4 -50 0
13 -50 0
4 50 -13 0
-16 -51 0
50 -51 0
16 51 -50 0
52 -16 0
52 -51 0
16 51 -52 0
-15 -52 -53 0
15 52 -53 0
52 53 -15 0
15 53 -52 0
-5 -54 0
15 -54 0
5 54 -15 0
-18 -55 0
54 -55 0
18 55 -54 0
56 -18 0
56 -55 0
18 55 -56 0
-17 -56 -57 0
17 56 -57 0
56 57 -17 0
17 57 -56 0
-6 -58 0
17 -58 0
6 58 -17 0
-20 -59 0
58 -59 0
20 59 -58 0
60 -20 0
60 -59 0
20 59 -60 0
-19 -60 -61 0
19 60 -61 0
60 61 -19 0
19 61 -60 0
-1 -62 0
-2 -62 0
-3 -62 0
-4 -62 0
-5 -62 0
-6 -62 0
-7 -62 0
-41 -62 0
-45 -62 0
-49 -62 0
-53 -62 0
-57 -62 0
-61 -62 0
1 2 3 4 5 6 7 41 45 49 53 57 61 62 0
-21 -63 0
29 -63 0
21 63 -29 0
-28 -64 0
63 -64 0
28 64 -63 0
65 -28 0
65 -64 0
28 64 -65 0
-27 -65 -66 0
27 65 -66 0
65 66 -27 0
27 66 -65 0
-22 -67 0
27 -67 0
22 67 -27 0
-31 -68 0
67 -68 0
31 68 -67 0
69 -31 0
69 -68 0
31 68 -69 0
-30 -69 -70 0
30 69 -70 0
69 70 -30 0
30 70 -69 0
-23 -71 0
30 -71 0
23 71 -30 0
-33 -72 0
71 -72 0
33 72 -71 0
73 -33 0
73 -72 0
33 72 -73 0
-32 -73 -74 0
32 73 -74 0
73 74 -32 0
32 74 -73 0
-24 -75 0
32 -75 0
24 75 -32 0
-35 -76 0
75 -76 0
35 76 -75 0
77 -35 0
77 -76 0
35 76 -77 0
-34 -77 -78 0
34 77 -78 0
77 78 -34 0
34 78 -77 0
-25 -79 0
34 -79 0
25 79 -34 0
-37 -80 0
79 -80 0
37 80 -79 0
81 -37 0
81 -80 0
37 80 -81 0
-36 -81 -82 0
36 81 -82 0
81 82 -36 0
36 82 -81 0
-21 -83 0
-22 -83 0
-23 -83 0
-24 -83 0
-25 -83 0
-26 -83 0
-66 -83 0
-70 -83 0
-74 -83 0
-78 -83 0
-82 -83 0
21 22 23 24 25 26 66 70 74 78 82 83 0
-7 -21 -84 0
7 21 -84 0
21 84 -7 0
7 84 -21 0
-19 -29 -85 0
19 29 -85 0
29 85 -19 0
19 85 -29 0
-84 -86 0
-85 -86 0
84 85 86 0
-7 -22 -87 0
7 22 -87 0
22 87 -7 0
7 87 -22 0
-19 -27 -88 0
19 27 -88 0
27 88 -19 0
19 88 -27 0
-87 -89 0
-88 -89 0
87 88 89 0
-7 -23 -90 0
7 23 -90 0
23 90 -7 0
7 90 -23 0
-19 -30 -91 0
19 30 -91 0
30 91 -19 0
19 91 -30 0
-90 -92 0
-91 -92 0
90 91 92 0
-7 -24 -93 0
7 24 -93 0
24 93 -7 0
7 93 -24 0
-19 -32 -94 0
19 32 -94 0
32 94 -19 0
19 94 -32 0
-93 -95 0
-94 -95 0
93 94 95 0
-7 -25 -96 0
7 25 -96 0
25 96 -7 0
7 96 -25 0
-19 -34 -97 0
19 34 -97 0
34 97 -19 0
19 97 -34 0
-96 -98 0
-97 -98 0
96 97 98 0
-7 -26 -99 0
7 26 -99 0
26 99 -7 0
7 99 -26 0
-19 -36 -100 0
19 36 -100 0
36 100 -19 0
19 100 -36 0
-99 -101 0
-100 -101 0
99 100 101 0
102 -86 0
102 -89 0
102 -92 0
102 -95 0
102 -98 0
102 -101 0
86 89 92 95 98 101 -102 0
83 -103 0
102 -103 0
103 -83 -102 0
103 -62 0
